%nprocshared=64 
%mem=64000MB 
# pbe1pbe def2svp pop=NBO7 

NBO input 

 0 1 
C   0.685279   -1.607182   0.936006 
Pd   -0.069593   -0.220833   2.28288 
P   -0.565307   1.466787   3.780542
C   1.901689   0.416662   2.400309
P   -2.130605   -1.205707   1.937849
H   0.025792   -2.472058   0.746605
H   1.652535   -1.989459   1.293119
H   0.847844   -1.08504   -0.021121
H   -1.831595   1.716194   4.385951 
H   0.207867   1.520666   4.971041 
H   -0.318112   2.798428   3.351023
H   2.034639   1.42668   2.825723
H   2.443757   -0.298287   3.040759
H   2.36008   0.406136   1.400801
H   -3.378616   -0.764966   2.467399
H   -2.260407   -2.570142   2.312458
H   -2.557807   -1.35271   0.591052

$nbo $end

